letting n =  10
letting blocks =  [[1, 5], [1, 6], [1, 10], [2, 1], [2, 2], [2, 3], [2, 7], [2, 8], [3, 2], [3, 3], [3, 5], [3, 7], [4, 4], [4, 6], [4, 7], [4, 8], [4, 9], [5, 1], [5, 2], [5, 6], [5, 8], [6, 1], [6, 2], [6, 4], [6, 5], [6, 6], [6, 8], [7, 1], [7, 2], [7, 4], [7, 6], [7, 9], [7, 10], [8, 3], [8, 7], [8, 9], [9, 3], [9, 4], [9, 6], [9, 7], [9, 10], [10, 1], [10, 2], [10, 5], [10, 8], [10, 9]]
